143824
46, 86, 45, 25, 62, 22, 2, 72, 100, 51, 82, 33, 73, 48, 85, 36, 71, 54, 95, 67, 11, 41, 104, 105, 38, 101, 3, 78, 94, 70, 18, 49, 37, 39, 84, 53, 7, 63, 32, 75, 35, 103, 4, 15, 96, 60, 91, 79, 43, 24, 1, 58, 87, 44, 59, 66, 10, 27, 28, 76, 89, 93, 12, 23, 92, 9, 34, 57, 80, 83, 74, 102, 14, 47, 61, 26, 50, 68, 99, 19, 42, 81, 69, 98, 106, 8, 97, 55, 30, 29, 5, 52, 65, 31, 13, 88, 6, 40, 56, 20, 16, 64, 17, 90, 21, 77
